% Auto-generated by scripts/generate_dzn.py
% problem_type   = regex
% instance       = regex_50
% source_json    = instances_json/2_high_blowup/regex_50.json
% blowup         = 20.96551724137931
% representation = NFA

mode = 1;

var_count = 20;
n_constraints = 2;
Q = 17;
S = 2;
q0 = [1, 1];
F = [{17}, {12}];
weights = [5, 6, 6, 4, 5, 10, 10, 2, 3, 10, 10, 3, 2, 7, 8, 10, 7, 1, 10, 3];
d_dfa = array3d(1..2, 1..17, 1..2, [
  % k = 1
    0, 0,
    0, 0,
    0, 0,
    0, 0,
    0, 0,
    0, 0,
    0, 0,
    0, 0,
    0, 0,
    0, 0,
    0, 0,
    0, 0,
    0, 0,
    0, 0,
    0, 0,
    0, 0,
    0, 0,

  % k = 2
    0, 0,
    0, 0,
    0, 0,
    0, 0,
    0, 0,
    0, 0,
    0, 0,
    0, 0,
    0, 0,
    0, 0,
    0, 0,
    0, 0,
    0, 0,
    0, 0,
    0, 0,
    0, 0,
    0, 0
]);
d_nfa = array3d(1..2, 1..17, 1..2, [
  % k = 1
    {1}, {1, 2},
    {}, {3},
    {4}, {},
    {5}, {5},
    {6}, {6},
    {7}, {7},
    {8}, {8},
    {9}, {9},
    {10}, {10},
    {11}, {11},
    {12}, {12},
    {13}, {13},
    {14}, {14},
    {15}, {15},
    {16}, {16},
    {17}, {17},
    {}, {},

  % k = 2
    {2}, {1},
    {3}, {2},
    {4}, {3},
    {5}, {4},
    {6}, {5},
    {7}, {6},
    {8}, {7},
    {9}, {8},
    {10}, {9},
    {11}, {10},
    {12}, {11},
    {}, {12},
    {}, {},
    {}, {},
    {}, {},
    {}, {},
    {}, {}
]);
